n = 5;

m_names = ["Hubert", "Igor", "Jan", "Kamil", "Leon"];
w_names = ["Hanna", "Iga", "Jola", "Kinga", "Lena"];

m_ranks = array2d(1..5, 1..5, [
  5, 3, 1, 4, 2,
  2, 5, 4, 1, 3,
  3, 1, 5, 2, 4,
  4, 2, 3, 5, 1,
  1, 4, 2, 3, 5
]);

w_ranks = array2d(1..5, 1..5, [
  2, 1, 3, 5, 4,
  3, 5, 1, 2, 4,
  1, 4, 2, 3, 5,
  5, 2, 4, 1, 3,
  4, 3, 5, 1, 2
]);